CPXPARAM_Read_DataCheck                          1
Found incumbent of value 0.000000 after 0.00 sec. (0.03 ticks)
Tried aggregator 1 time.
MIP Presolve modified 1 coefficients.
Reduced MIP has 216 rows, 1005 columns, and 5020 nonzeros.
Reduced MIP has 1005 binaries, 0 generals, 0 SOSs, and 0 indicators.
Presolve time = 0.00 sec. (2.16 ticks)
Probing time = 0.00 sec. (1.53 ticks)
Tried aggregator 1 time.
Reduced MIP has 216 rows, 1005 columns, and 5020 nonzeros.
Reduced MIP has 1005 binaries, 0 generals, 0 SOSs, and 0 indicators.
Presolve time = 0.02 sec. (2.52 ticks)
Probing time = 0.00 sec. (1.53 ticks)
Clique table members: 1931.
MIP emphasis: balance optimality and feasibility.
MIP search method: dynamic search.
Parallel mode: deterministic, using up to 4 threads.
Root relaxation solution time = 0.00 sec. (2.94 ticks)

        Nodes                                         Cuts/
   Node  Left     Objective  IInf  Best Integer    Best Bound    ItCnt     Gap

*     0+    0                            0.0000     6238.0000              --- 
      0     0     1753.3355     5        0.0000     1753.3355      291     --- 
      0     0     1524.6997   182        0.0000     Cuts: 154      469     --- 
      0     0     1477.2773   293        0.0000     Cuts: 102      601     --- 
*     0+    0                         1459.0000     1477.2773             1.25%
      0     0        cutoff           1459.0000     1459.0000      658    0.00%
Elapsed time = 0.13 sec. (104.92 ticks, tree = 0.01 MB, solutions = 2)

GUB cover cuts applied:  1
Clique cuts applied:  257
Cover cuts applied:  9
Mixed integer rounding cuts applied:  5
Zero-half cuts applied:  1

Root node processing (before b&c):
  Real time             =    0.13 sec. (104.99 ticks)
Parallel b&c, 4 threads:
  Real time             =    0.00 sec. (0.00 ticks)
  Sync time (average)   =    0.00 sec.
  Wait time (average)   =    0.00 sec.
                          ------------
Total (root+branch&cut) =    0.13 sec. (104.99 ticks)
